(set-logic QF_S)
(declare-fun x () String)
(declare-fun y () String)
(declare-fun z () Int)
(assert (not (= (str.replace "B" (str.replace "B" x "B") y) (str.replace y (str.++ x y) "B"))))
(check-sat)
